solution status: optimal solution found
objective value:                     126673.979071416
d11(0,0)                                            1 	(obj:0)
d11(1,1)                                            1 	(obj:0)
d11(1,2)                                            1 	(obj:0)
d11(2,3)                                            1 	(obj:0)
d11(2,5)                                            1 	(obj:0)
d11(3,9)                                            1 	(obj:0)
d11(3,11)                                           1 	(obj:0)
d11(3,13)                                           1 	(obj:0)
d12(2,4)                                            1 	(obj:0)
d12(3,8)                                            1 	(obj:0)
d12(3,10)                                           1 	(obj:0)
d12(3,12)                                           1 	(obj:0)
d12(3,14)                                           1 	(obj:0)
d21(2,3)                                            1 	(obj:0)
d21(3,7)                                            1 	(obj:0)
d21(3,8)                                            1 	(obj:0)
d21(3,9)                                            1 	(obj:0)
WB(2)                                3315.65537776224 	(obj:0)
y2(3,8)                              1385.48851144895 	(obj:0)
y2(3,10)                             1385.48851144895 	(obj:0)
y2(3,12)                             1385.48851144895 	(obj:0)
y2(3,14)                             1385.48851144895 	(obj:0)
STE(1,1)                              5112.8121107187 	(obj:0)
STE(0,0)                                         9450 	(obj:0)
STE(1,2)                             6771.06200960752 	(obj:0)
STE(2,3)                               2877.750301111 	(obj:0)
STE(2,4)                              4356.8121107187 	(obj:0)
STE(2,5)                             4536.00019999974 	(obj:0)
STE(2,6)                             6015.06200960752 	(obj:0)
STE(3,7)                               2121.750301111 	(obj:0)
STE(3,8)                             3437.96438698751 	(obj:0)
STE(3,9)                              3600.8121107187 	(obj:0)
STE(3,10)                             4917.0261965952 	(obj:0)
STE(3,11)                                   3780.0002 	(obj:0)
STE(3,12)                            5096.21428587625 	(obj:0)
STE(3,13)                            5259.06200960752 	(obj:0)
STE(3,14)                            6575.27609548402 	(obj:0)
AVE(2)                               3315.65537776224 	(obj:0)
WB(3)                                3315.65799770399 	(obj:0)
y1(1,1)                              3223.06910035317 	(obj:0)
y1(1,2)                              1730.64419135324 	(obj:0)
y1(2,3)                              1331.15562864692 	(obj:0)
y1(2,5)                                1331.155628647 	(obj:0)
AVE(3)                               3315.65799770399 	(obj:0)
WG(1)                                3248.33172520918 	(obj:10)
BG(1)                                2713.92423433491 	(obj:10)
BG(2)                                 4031.7320088235 	(obj:10)
BG(3)                                2673.40993877551 	(obj:10)
AVE(1)                               3248.33172520918 	(obj:0)
